c Formule 3-SAT générée par réduction
c Variables originales: 18446744073709551102
c Variables totales (avec auxiliaires): 1122
p cnf 1122 1636
1 25 253 0
1 25 -253 0
5 29 254 0
5 29 -254 0
9 33 255 0
9 33 -255 0
13 37 256 0
13 37 -256 0
17 41 257 0
17 41 -257 0
21 45 258 0
21 45 -258 0
2 26 259 0
2 26 -259 0
6 30 260 0
6 30 -260 0
10 34 261 0
10 34 -261 0
14 38 262 0
14 38 -262 0
18 42 263 0
18 42 -263 0
22 46 264 0
22 46 -264 0
3 27 265 0
3 27 -265 0
7 31 266 0
7 31 -266 0
11 35 267 0
11 35 -267 0
15 39 268 0
15 39 -268 0
19 43 269 0
19 43 -269 0
23 47 270 0
23 47 -270 0
4 28 271 0
4 28 -271 0
8 32 272 0
8 32 -272 0
12 36 273 0
12 36 -273 0
16 40 274 0
16 40 -274 0
20 44 275 0
20 44 -275 0
24 48 276 0
24 48 -276 0
-49 -1 277 0
-277 -2 278 0
-278 -3 -4 0
-51 -5 279 0
-279 -6 280 0
-280 -7 -8 0
-53 -9 281 0
-281 -10 282 0
-282 -11 -12 0
-55 -13 283 0
-283 -14 284 0
-284 -15 -16 0
-57 -17 285 0
-285 -18 286 0
-286 -19 -20 0
-59 -21 287 0
-287 -22 288 0
-288 -23 -24 0
-49 -1 289 0
-289 -2 290 0
-290 -3 -28 0
-51 -5 291 0
-291 -6 292 0
-292 -7 -32 0
-53 -9 293 0
-293 -10 294 0
-294 -11 -36 0
-55 -13 295 0
-295 -14 296 0
-296 -15 -40 0
-57 -17 297 0
-297 -18 298 0
-298 -19 -44 0
-59 -21 299 0
-299 -22 300 0
-300 -23 -48 0
-49 -1 301 0
-301 -26 302 0
-302 -3 -4 0
-51 -5 303 0
-303 -30 304 0
-304 -7 -8 0
-53 -9 305 0
-305 -34 306 0
-306 -11 -12 0
-55 -13 307 0
-307 -38 308 0
-308 -15 -16 0
-57 -17 309 0
-309 -42 310 0
-310 -19 -20 0
-59 -21 311 0
-311 -46 312 0
-312 -23 -24 0
-49 -1 313 0
-313 -26 314 0
-314 -3 -28 0
-51 -5 315 0
-315 -30 316 0
-316 -7 -32 0
-53 -9 317 0
-317 -34 318 0
-318 -11 -36 0
-55 -13 319 0
-319 -38 320 0
-320 -15 -40 0
-57 -17 321 0
-321 -42 322 0
-322 -19 -44 0
-59 -21 323 0
-323 -46 324 0
-324 -23 -48 0
-50 -1 325 0
-325 -2 326 0
-326 -3 -4 0
-52 -5 327 0
-327 -6 328 0
-328 -7 -8 0
-54 -9 329 0
-329 -10 330 0
-330 -11 -12 0
-56 -13 331 0
-331 -14 332 0
-332 -15 -16 0
-58 -17 333 0
-333 -18 334 0
-334 -19 -20 0
-60 -21 335 0
-335 -22 336 0
-336 -23 -24 0
-50 -1 337 0
-337 -2 338 0
-338 -27 -4 0
-52 -5 339 0
-339 -6 340 0
-340 -31 -8 0
-54 -9 341 0
-341 -10 342 0
-342 -35 -12 0
-56 -13 343 0
-343 -14 344 0
-344 -39 -16 0
-58 -17 345 0
-345 -18 346 0
-346 -43 -20 0
-60 -21 347 0
-347 -22 348 0
-348 -47 -24 0
-50 -1 349 0
-349 -26 350 0
-350 -27 -4 0
-52 -5 351 0
-351 -30 352 0
-352 -31 -8 0
-54 -9 353 0
-353 -34 354 0
-354 -35 -12 0
-56 -13 355 0
-355 -38 356 0
-356 -39 -16 0
-58 -17 357 0
-357 -42 358 0
-358 -43 -20 0
-60 -21 359 0
-359 -46 360 0
-360 -47 -24 0
-50 -25 361 0
-361 -2 362 0
-362 -3 -4 0
-52 -29 363 0
-363 -6 364 0
-364 -7 -8 0
-54 -33 365 0
-365 -10 366 0
-366 -11 -12 0
-56 -37 367 0
-367 -14 368 0
-368 -15 -16 0
-58 -41 369 0
-369 -18 370 0
-370 -19 -20 0
-60 -45 371 0
-371 -22 372 0
-372 -23 -24 0
-50 -25 373 0
-373 -2 374 0
-374 -3 -28 0
-52 -29 375 0
-375 -6 376 0
-376 -7 -32 0
-54 -33 377 0
-377 -10 378 0
-378 -11 -36 0
-56 -37 379 0
-379 -14 380 0
-380 -15 -40 0
-58 -41 381 0
-381 -18 382 0
-382 -19 -44 0
-60 -45 383 0
-383 -22 384 0
-384 -23 -48 0
-50 -25 385 0
-385 -2 386 0
-386 -27 -4 0
-52 -29 387 0
-387 -6 388 0
-388 -31 -8 0
-54 -33 389 0
-389 -10 390 0
-390 -35 -12 0
-56 -37 391 0
-391 -14 392 0
-392 -39 -16 0
-58 -41 393 0
-393 -18 394 0
-394 -43 -20 0
-60 -45 395 0
-395 -22 396 0
-396 -47 -24 0
85 87 397 0
-397 89 398 0
-398 91 399 0
-399 93 95 0
97 99 400 0
-400 101 401 0
-401 103 402 0
-402 105 107 0
133 135 403 0
-403 137 404 0
-404 139 405 0
-405 141 143 0
145 147 406 0
-406 149 407 0
-407 151 408 0
-408 153 155 0
157 159 409 0
-409 161 410 0
-410 163 411 0
-411 165 167 0
169 171 412 0
-412 173 413 0
-413 175 414 0
-414 177 179 0
181 183 415 0
-415 185 416 0
-416 187 417 0
-417 189 191 0
193 195 418 0
-418 197 419 0
-419 199 420 0
-420 201 203 0
205 207 421 0
-421 209 422 0
-422 211 423 0
-423 213 215 0
217 219 424 0
-424 221 425 0
-425 223 426 0
-426 225 227 0
229 231 427 0
-427 233 428 0
-428 235 429 0
-429 237 239 0
241 243 430 0
-430 245 431 0
-431 247 432 0
-432 249 251 0
74 76 433 0
-433 78 434 0
-434 80 435 0
-435 82 84 0
98 100 436 0
-436 102 437 0
-437 104 438 0
-438 106 108 0
110 112 439 0
-439 114 440 0
-440 116 441 0
-441 118 120 0
122 124 442 0
-442 126 443 0
-443 128 444 0
-444 130 132 0
146 148 445 0
-445 150 446 0
-446 152 447 0
-447 154 156 0
194 196 448 0
-448 198 449 0
-449 200 450 0
-450 202 204 0
206 208 451 0
-451 210 452 0
-452 212 453 0
-453 214 216 0
218 220 454 0
-454 222 455 0
-455 224 456 0
-456 226 228 0
230 232 457 0
-457 234 458 0
-458 236 459 0
-459 238 240 0
242 244 460 0
-460 246 461 0
-461 248 462 0
-462 250 252 0
-85 49 463 0
-85 49 -463 0
-87 51 464 0
-87 51 -464 0
-89 53 465 0
-89 53 -465 0
-91 55 466 0
-91 55 -466 0
-93 57 467 0
-93 57 -467 0
-95 59 468 0
-95 59 -468 0
-97 49 469 0
-97 49 -469 0
-99 51 470 0
-99 51 -470 0
-101 53 471 0
-101 53 -471 0
-103 55 472 0
-103 55 -472 0
-105 57 473 0
-105 57 -473 0
-107 59 474 0
-107 59 -474 0
-133 49 475 0
-133 49 -475 0
-135 51 476 0
-135 51 -476 0
-137 53 477 0
-137 53 -477 0
-139 55 478 0
-139 55 -478 0
-141 57 479 0
-141 57 -479 0
-143 59 480 0
-143 59 -480 0
-145 49 481 0
-145 49 -481 0
-147 51 482 0
-147 51 -482 0
-149 53 483 0
-149 53 -483 0
-151 55 484 0
-151 55 -484 0
-153 57 485 0
-153 57 -485 0
-155 59 486 0
-155 59 -486 0
-157 49 487 0
-157 49 -487 0
-159 51 488 0
-159 51 -488 0
-161 53 489 0
-161 53 -489 0
-163 55 490 0
-163 55 -490 0
-165 57 491 0
-165 57 -491 0
-167 59 492 0
-167 59 -492 0
-169 49 493 0
-169 49 -493 0
-171 51 494 0
-171 51 -494 0
-173 53 495 0
-173 53 -495 0
-175 55 496 0
-175 55 -496 0
-177 57 497 0
-177 57 -497 0
-179 59 498 0
-179 59 -498 0
-181 49 499 0
-181 49 -499 0
-183 51 500 0
-183 51 -500 0
-185 53 501 0
-185 53 -501 0
-187 55 502 0
-187 55 -502 0
-189 57 503 0
-189 57 -503 0
-191 59 504 0
-191 59 -504 0
-193 49 505 0
-193 49 -505 0
-195 51 506 0
-195 51 -506 0
-197 53 507 0
-197 53 -507 0
-199 55 508 0
-199 55 -508 0
-201 57 509 0
-201 57 -509 0
-203 59 510 0
-203 59 -510 0
-205 49 511 0
-205 49 -511 0
-207 51 512 0
-207 51 -512 0
-209 53 513 0
-209 53 -513 0
-211 55 514 0
-211 55 -514 0
-213 57 515 0
-213 57 -515 0
-215 59 516 0
-215 59 -516 0
-217 49 517 0
-217 49 -517 0
-219 51 518 0
-219 51 -518 0
-221 53 519 0
-221 53 -519 0
-223 55 520 0
-223 55 -520 0
-225 57 521 0
-225 57 -521 0
-227 59 522 0
-227 59 -522 0
-229 49 523 0
-229 49 -523 0
-231 51 524 0
-231 51 -524 0
-233 53 525 0
-233 53 -525 0
-235 55 526 0
-235 55 -526 0
-237 57 527 0
-237 57 -527 0
-239 59 528 0
-239 59 -528 0
-241 49 529 0
-241 49 -529 0
-243 51 530 0
-243 51 -530 0
-245 53 531 0
-245 53 -531 0
-247 55 532 0
-247 55 -532 0
-249 57 533 0
-249 57 -533 0
-251 59 534 0
-251 59 -534 0
-74 50 535 0
-74 50 -535 0
-76 52 536 0
-76 52 -536 0
-78 54 537 0
-78 54 -537 0
-80 56 538 0
-80 56 -538 0
-82 58 539 0
-82 58 -539 0
-84 60 540 0
-84 60 -540 0
-98 50 541 0
-98 50 -541 0
-100 52 542 0
-100 52 -542 0
-102 54 543 0
-102 54 -543 0
-104 56 544 0
-104 56 -544 0
-106 58 545 0
-106 58 -545 0
-108 60 546 0
-108 60 -546 0
-110 50 547 0
-110 50 -547 0
-112 52 548 0
-112 52 -548 0
-114 54 549 0
-114 54 -549 0
-116 56 550 0
-116 56 -550 0
-118 58 551 0
-118 58 -551 0
-120 60 552 0
-120 60 -552 0
-122 50 553 0
-122 50 -553 0
-124 52 554 0
-124 52 -554 0
-126 54 555 0
-126 54 -555 0
-128 56 556 0
-128 56 -556 0
-130 58 557 0
-130 58 -557 0
-132 60 558 0
-132 60 -558 0
-146 50 559 0
-146 50 -559 0
-148 52 560 0
-148 52 -560 0
-150 54 561 0
-150 54 -561 0
-152 56 562 0
-152 56 -562 0
-154 58 563 0
-154 58 -563 0
-156 60 564 0
-156 60 -564 0
-194 50 565 0
-194 50 -565 0
-196 52 566 0
-196 52 -566 0
-198 54 567 0
-198 54 -567 0
-200 56 568 0
-200 56 -568 0
-202 58 569 0
-202 58 -569 0
-204 60 570 0
-204 60 -570 0
-206 50 571 0
-206 50 -571 0
-208 52 572 0
-208 52 -572 0
-210 54 573 0
-210 54 -573 0
-212 56 574 0
-212 56 -574 0
-214 58 575 0
-214 58 -575 0
-216 60 576 0
-216 60 -576 0
-218 50 577 0
-218 50 -577 0
-220 52 578 0
-220 52 -578 0
-222 54 579 0
-222 54 -579 0
-224 56 580 0
-224 56 -580 0
-226 58 581 0
-226 58 -581 0
-228 60 582 0
-228 60 -582 0
-230 50 583 0
-230 50 -583 0
-232 52 584 0
-232 52 -584 0
-234 54 585 0
-234 54 -585 0
-236 56 586 0
-236 56 -586 0
-238 58 587 0
-238 58 -587 0
-240 60 588 0
-240 60 -588 0
-242 50 589 0
-242 50 -589 0
-244 52 590 0
-244 52 -590 0
-246 54 591 0
-246 54 -591 0
-248 56 592 0
-248 56 -592 0
-250 58 593 0
-250 58 -593 0
-252 60 594 0
-252 60 -594 0
-85 1 595 0
-85 1 -595 0
-87 5 596 0
-87 5 -596 0
-89 9 597 0
-89 9 -597 0
-91 13 598 0
-91 13 -598 0
-93 17 599 0
-93 17 -599 0
-95 21 600 0
-95 21 -600 0
-85 2 601 0
-85 2 -601 0
-87 6 602 0
-87 6 -602 0
-89 10 603 0
-89 10 -603 0
-91 14 604 0
-91 14 -604 0
-93 18 605 0
-93 18 -605 0
-95 22 606 0
-95 22 -606 0
-85 27 607 0
-85 27 -607 0
-87 31 608 0
-87 31 -608 0
-89 35 609 0
-89 35 -609 0
-91 39 610 0
-91 39 -610 0
-93 43 611 0
-93 43 -611 0
-95 47 612 0
-95 47 -612 0
-85 4 613 0
-85 4 -613 0
-87 8 614 0
-87 8 -614 0
-89 12 615 0
-89 12 -615 0
-91 16 616 0
-91 16 -616 0
-93 20 617 0
-93 20 -617 0
-95 24 618 0
-95 24 -618 0
-97 1 619 0
-97 1 -619 0
-99 5 620 0
-99 5 -620 0
-101 9 621 0
-101 9 -621 0
-103 13 622 0
-103 13 -622 0
-105 17 623 0
-105 17 -623 0
-107 21 624 0
-107 21 -624 0
-97 2 625 0
-97 2 -625 0
-99 6 626 0
-99 6 -626 0
-101 10 627 0
-101 10 -627 0
-103 14 628 0
-103 14 -628 0
-105 18 629 0
-105 18 -629 0
-107 22 630 0
-107 22 -630 0
-97 27 631 0
-97 27 -631 0
-99 31 632 0
-99 31 -632 0
-101 35 633 0
-101 35 -633 0
-103 39 634 0
-103 39 -634 0
-105 43 635 0
-105 43 -635 0
-107 47 636 0
-107 47 -636 0
-97 28 637 0
-97 28 -637 0
-99 32 638 0
-99 32 -638 0
-101 36 639 0
-101 36 -639 0
-103 40 640 0
-103 40 -640 0
-105 44 641 0
-105 44 -641 0
-107 48 642 0
-107 48 -642 0
-133 1 643 0
-133 1 -643 0
-135 5 644 0
-135 5 -644 0
-137 9 645 0
-137 9 -645 0
-139 13 646 0
-139 13 -646 0
-141 17 647 0
-141 17 -647 0
-143 21 648 0
-143 21 -648 0
-133 26 649 0
-133 26 -649 0
-135 30 650 0
-135 30 -650 0
-137 34 651 0
-137 34 -651 0
-139 38 652 0
-139 38 -652 0
-141 42 653 0
-141 42 -653 0
-143 46 654 0
-143 46 -654 0
-133 27 655 0
-133 27 -655 0
-135 31 656 0
-135 31 -656 0
-137 35 657 0
-137 35 -657 0
-139 39 658 0
-139 39 -658 0
-141 43 659 0
-141 43 -659 0
-143 47 660 0
-143 47 -660 0
-133 4 661 0
-133 4 -661 0
-135 8 662 0
-135 8 -662 0
-137 12 663 0
-137 12 -663 0
-139 16 664 0
-139 16 -664 0
-141 20 665 0
-141 20 -665 0
-143 24 666 0
-143 24 -666 0
-145 1 667 0
-145 1 -667 0
-147 5 668 0
-147 5 -668 0
-149 9 669 0
-149 9 -669 0
-151 13 670 0
-151 13 -670 0
-153 17 671 0
-153 17 -671 0
-155 21 672 0
-155 21 -672 0
-145 26 673 0
-145 26 -673 0
-147 30 674 0
-147 30 -674 0
-149 34 675 0
-149 34 -675 0
-151 38 676 0
-151 38 -676 0
-153 42 677 0
-153 42 -677 0
-155 46 678 0
-155 46 -678 0
-145 27 679 0
-145 27 -679 0
-147 31 680 0
-147 31 -680 0
-149 35 681 0
-149 35 -681 0
-151 39 682 0
-151 39 -682 0
-153 43 683 0
-153 43 -683 0
-155 47 684 0
-155 47 -684 0
-145 28 685 0
-145 28 -685 0
-147 32 686 0
-147 32 -686 0
-149 36 687 0
-149 36 -687 0
-151 40 688 0
-151 40 -688 0
-153 44 689 0
-153 44 -689 0
-155 48 690 0
-155 48 -690 0
-157 25 691 0
-157 25 -691 0
-159 29 692 0
-159 29 -692 0
-161 33 693 0
-161 33 -693 0
-163 37 694 0
-163 37 -694 0
-165 41 695 0
-165 41 -695 0
-167 45 696 0
-167 45 -696 0
-157 2 697 0
-157 2 -697 0
-159 6 698 0
-159 6 -698 0
-161 10 699 0
-161 10 -699 0
-163 14 700 0
-163 14 -700 0
-165 18 701 0
-165 18 -701 0
-167 22 702 0
-167 22 -702 0
-157 3 703 0
-157 3 -703 0
-159 7 704 0
-159 7 -704 0
-161 11 705 0
-161 11 -705 0
-163 15 706 0
-163 15 -706 0
-165 19 707 0
-165 19 -707 0
-167 23 708 0
-167 23 -708 0
-157 4 709 0
-157 4 -709 0
-159 8 710 0
-159 8 -710 0
-161 12 711 0
-161 12 -711 0
-163 16 712 0
-163 16 -712 0
-165 20 713 0
-165 20 -713 0
-167 24 714 0
-167 24 -714 0
-169 25 715 0
-169 25 -715 0
-171 29 716 0
-171 29 -716 0
-173 33 717 0
-173 33 -717 0
-175 37 718 0
-175 37 -718 0
-177 41 719 0
-177 41 -719 0
-179 45 720 0
-179 45 -720 0
-169 2 721 0
-169 2 -721 0
-171 6 722 0
-171 6 -722 0
-173 10 723 0
-173 10 -723 0
-175 14 724 0
-175 14 -724 0
-177 18 725 0
-177 18 -725 0
-179 22 726 0
-179 22 -726 0
-169 3 727 0
-169 3 -727 0
-171 7 728 0
-171 7 -728 0
-173 11 729 0
-173 11 -729 0
-175 15 730 0
-175 15 -730 0
-177 19 731 0
-177 19 -731 0
-179 23 732 0
-179 23 -732 0
-169 28 733 0
-169 28 -733 0
-171 32 734 0
-171 32 -734 0
-173 36 735 0
-173 36 -735 0
-175 40 736 0
-175 40 -736 0
-177 44 737 0
-177 44 -737 0
-179 48 738 0
-179 48 -738 0
-181 25 739 0
-181 25 -739 0
-183 29 740 0
-183 29 -740 0
-185 33 741 0
-185 33 -741 0
-187 37 742 0
-187 37 -742 0
-189 41 743 0
-189 41 -743 0
-191 45 744 0
-191 45 -744 0
-181 2 745 0
-181 2 -745 0
-183 6 746 0
-183 6 -746 0
-185 10 747 0
-185 10 -747 0
-187 14 748 0
-187 14 -748 0
-189 18 749 0
-189 18 -749 0
-191 22 750 0
-191 22 -750 0
-181 27 751 0
-181 27 -751 0
-183 31 752 0
-183 31 -752 0
-185 35 753 0
-185 35 -753 0
-187 39 754 0
-187 39 -754 0
-189 43 755 0
-189 43 -755 0
-191 47 756 0
-191 47 -756 0
-181 4 757 0
-181 4 -757 0
-183 8 758 0
-183 8 -758 0
-185 12 759 0
-185 12 -759 0
-187 16 760 0
-187 16 -760 0
-189 20 761 0
-189 20 -761 0
-191 24 762 0
-191 24 -762 0
-193 25 763 0
-193 25 -763 0
-195 29 764 0
-195 29 -764 0
-197 33 765 0
-197 33 -765 0
-199 37 766 0
-199 37 -766 0
-201 41 767 0
-201 41 -767 0
-203 45 768 0
-203 45 -768 0
-193 2 769 0
-193 2 -769 0
-195 6 770 0
-195 6 -770 0
-197 10 771 0
-197 10 -771 0
-199 14 772 0
-199 14 -772 0
-201 18 773 0
-201 18 -773 0
-203 22 774 0
-203 22 -774 0
-193 27 775 0
-193 27 -775 0
-195 31 776 0
-195 31 -776 0
-197 35 777 0
-197 35 -777 0
-199 39 778 0
-199 39 -778 0
-201 43 779 0
-201 43 -779 0
-203 47 780 0
-203 47 -780 0
-193 28 781 0
-193 28 -781 0
-195 32 782 0
-195 32 -782 0
-197 36 783 0
-197 36 -783 0
-199 40 784 0
-199 40 -784 0
-201 44 785 0
-201 44 -785 0
-203 48 786 0
-203 48 -786 0
-205 25 787 0
-205 25 -787 0
-207 29 788 0
-207 29 -788 0
-209 33 789 0
-209 33 -789 0
-211 37 790 0
-211 37 -790 0
-213 41 791 0
-213 41 -791 0
-215 45 792 0
-215 45 -792 0
-205 26 793 0
-205 26 -793 0
-207 30 794 0
-207 30 -794 0
-209 34 795 0
-209 34 -795 0
-211 38 796 0
-211 38 -796 0
-213 42 797 0
-213 42 -797 0
-215 46 798 0
-215 46 -798 0
-205 3 799 0
-205 3 -799 0
-207 7 800 0
-207 7 -800 0
-209 11 801 0
-209 11 -801 0
-211 15 802 0
-211 15 -802 0
-213 19 803 0
-213 19 -803 0
-215 23 804 0
-215 23 -804 0
-205 4 805 0
-205 4 -805 0
-207 8 806 0
-207 8 -806 0
-209 12 807 0
-209 12 -807 0
-211 16 808 0
-211 16 -808 0
-213 20 809 0
-213 20 -809 0
-215 24 810 0
-215 24 -810 0
-217 25 811 0
-217 25 -811 0
-219 29 812 0
-219 29 -812 0
-221 33 813 0
-221 33 -813 0
-223 37 814 0
-223 37 -814 0
-225 41 815 0
-225 41 -815 0
-227 45 816 0
-227 45 -816 0
-217 26 817 0
-217 26 -817 0
-219 30 818 0
-219 30 -818 0
-221 34 819 0
-221 34 -819 0
-223 38 820 0
-223 38 -820 0
-225 42 821 0
-225 42 -821 0
-227 46 822 0
-227 46 -822 0
-217 3 823 0
-217 3 -823 0
-219 7 824 0
-219 7 -824 0
-221 11 825 0
-221 11 -825 0
-223 15 826 0
-223 15 -826 0
-225 19 827 0
-225 19 -827 0
-227 23 828 0
-227 23 -828 0
-217 28 829 0
-217 28 -829 0
-219 32 830 0
-219 32 -830 0
-221 36 831 0
-221 36 -831 0
-223 40 832 0
-223 40 -832 0
-225 44 833 0
-225 44 -833 0
-227 48 834 0
-227 48 -834 0
-229 25 835 0
-229 25 -835 0
-231 29 836 0
-231 29 -836 0
-233 33 837 0
-233 33 -837 0
-235 37 838 0
-235 37 -838 0
-237 41 839 0
-237 41 -839 0
-239 45 840 0
-239 45 -840 0
-229 26 841 0
-229 26 -841 0
-231 30 842 0
-231 30 -842 0
-233 34 843 0
-233 34 -843 0
-235 38 844 0
-235 38 -844 0
-237 42 845 0
-237 42 -845 0
-239 46 846 0
-239 46 -846 0
-229 27 847 0
-229 27 -847 0
-231 31 848 0
-231 31 -848 0
-233 35 849 0
-233 35 -849 0
-235 39 850 0
-235 39 -850 0
-237 43 851 0
-237 43 -851 0
-239 47 852 0
-239 47 -852 0
-229 4 853 0
-229 4 -853 0
-231 8 854 0
-231 8 -854 0
-233 12 855 0
-233 12 -855 0
-235 16 856 0
-235 16 -856 0
-237 20 857 0
-237 20 -857 0
-239 24 858 0
-239 24 -858 0
-241 25 859 0
-241 25 -859 0
-243 29 860 0
-243 29 -860 0
-245 33 861 0
-245 33 -861 0
-247 37 862 0
-247 37 -862 0
-249 41 863 0
-249 41 -863 0
-251 45 864 0
-251 45 -864 0
-241 26 865 0
-241 26 -865 0
-243 30 866 0
-243 30 -866 0
-245 34 867 0
-245 34 -867 0
-247 38 868 0
-247 38 -868 0
-249 42 869 0
-249 42 -869 0
-251 46 870 0
-251 46 -870 0
-241 27 871 0
-241 27 -871 0
-243 31 872 0
-243 31 -872 0
-245 35 873 0
-245 35 -873 0
-247 39 874 0
-247 39 -874 0
-249 43 875 0
-249 43 -875 0
-251 47 876 0
-251 47 -876 0
-241 28 877 0
-241 28 -877 0
-243 32 878 0
-243 32 -878 0
-245 36 879 0
-245 36 -879 0
-247 40 880 0
-247 40 -880 0
-249 44 881 0
-249 44 -881 0
-251 48 882 0
-251 48 -882 0
-74 1 883 0
-74 1 -883 0
-76 5 884 0
-76 5 -884 0
-78 9 885 0
-78 9 -885 0
-80 13 886 0
-80 13 -886 0
-82 17 887 0
-82 17 -887 0
-84 21 888 0
-84 21 -888 0
-74 2 889 0
-74 2 -889 0
-76 6 890 0
-76 6 -890 0
-78 10 891 0
-78 10 -891 0
-80 14 892 0
-80 14 -892 0
-82 18 893 0
-82 18 -893 0
-84 22 894 0
-84 22 -894 0
-74 3 895 0
-74 3 -895 0
-76 7 896 0
-76 7 -896 0
-78 11 897 0
-78 11 -897 0
-80 15 898 0
-80 15 -898 0
-82 19 899 0
-82 19 -899 0
-84 23 900 0
-84 23 -900 0
-74 28 901 0
-74 28 -901 0
-76 32 902 0
-76 32 -902 0
-78 36 903 0
-78 36 -903 0
-80 40 904 0
-80 40 -904 0
-82 44 905 0
-82 44 -905 0
-84 48 906 0
-84 48 -906 0
-98 1 907 0
-98 1 -907 0
-100 5 908 0
-100 5 -908 0
-102 9 909 0
-102 9 -909 0
-104 13 910 0
-104 13 -910 0
-106 17 911 0
-106 17 -911 0
-108 21 912 0
-108 21 -912 0
-98 2 913 0
-98 2 -913 0
-100 6 914 0
-100 6 -914 0
-102 10 915 0
-102 10 -915 0
-104 14 916 0
-104 14 -916 0
-106 18 917 0
-106 18 -917 0
-108 22 918 0
-108 22 -918 0
-98 27 919 0
-98 27 -919 0
-100 31 920 0
-100 31 -920 0
-102 35 921 0
-102 35 -921 0
-104 39 922 0
-104 39 -922 0
-106 43 923 0
-106 43 -923 0
-108 47 924 0
-108 47 -924 0
-98 28 925 0
-98 28 -925 0
-100 32 926 0
-100 32 -926 0
-102 36 927 0
-102 36 -927 0
-104 40 928 0
-104 40 -928 0
-106 44 929 0
-106 44 -929 0
-108 48 930 0
-108 48 -930 0
-110 1 931 0
-110 1 -931 0
-112 5 932 0
-112 5 -932 0
-114 9 933 0
-114 9 -933 0
-116 13 934 0
-116 13 -934 0
-118 17 935 0
-118 17 -935 0
-120 21 936 0
-120 21 -936 0
-110 26 937 0
-110 26 -937 0
-112 30 938 0
-112 30 -938 0
-114 34 939 0
-114 34 -939 0
-116 38 940 0
-116 38 -940 0
-118 42 941 0
-118 42 -941 0
-120 46 942 0
-120 46 -942 0
-110 3 943 0
-110 3 -943 0
-112 7 944 0
-112 7 -944 0
-114 11 945 0
-114 11 -945 0
-116 15 946 0
-116 15 -946 0
-118 19 947 0
-118 19 -947 0
-120 23 948 0
-120 23 -948 0
-110 4 949 0
-110 4 -949 0
-112 8 950 0
-112 8 -950 0
-114 12 951 0
-114 12 -951 0
-116 16 952 0
-116 16 -952 0
-118 20 953 0
-118 20 -953 0
-120 24 954 0
-120 24 -954 0
-122 1 955 0
-122 1 -955 0
-124 5 956 0
-124 5 -956 0
-126 9 957 0
-126 9 -957 0
-128 13 958 0
-128 13 -958 0
-130 17 959 0
-130 17 -959 0
-132 21 960 0
-132 21 -960 0
-122 26 961 0
-122 26 -961 0
-124 30 962 0
-124 30 -962 0
-126 34 963 0
-126 34 -963 0
-128 38 964 0
-128 38 -964 0
-130 42 965 0
-130 42 -965 0
-132 46 966 0
-132 46 -966 0
-122 3 967 0
-122 3 -967 0
-124 7 968 0
-124 7 -968 0
-126 11 969 0
-126 11 -969 0
-128 15 970 0
-128 15 -970 0
-130 19 971 0
-130 19 -971 0
-132 23 972 0
-132 23 -972 0
-122 28 973 0
-122 28 -973 0
-124 32 974 0
-124 32 -974 0
-126 36 975 0
-126 36 -975 0
-128 40 976 0
-128 40 -976 0
-130 44 977 0
-130 44 -977 0
-132 48 978 0
-132 48 -978 0
-146 1 979 0
-146 1 -979 0
-148 5 980 0
-148 5 -980 0
-150 9 981 0
-150 9 -981 0
-152 13 982 0
-152 13 -982 0
-154 17 983 0
-154 17 -983 0
-156 21 984 0
-156 21 -984 0
-146 26 985 0
-146 26 -985 0
-148 30 986 0
-148 30 -986 0
-150 34 987 0
-150 34 -987 0
-152 38 988 0
-152 38 -988 0
-154 42 989 0
-154 42 -989 0
-156 46 990 0
-156 46 -990 0
-146 27 991 0
-146 27 -991 0
-148 31 992 0
-148 31 -992 0
-150 35 993 0
-150 35 -993 0
-152 39 994 0
-152 39 -994 0
-154 43 995 0
-154 43 -995 0
-156 47 996 0
-156 47 -996 0
-146 28 997 0
-146 28 -997 0
-148 32 998 0
-148 32 -998 0
-150 36 999 0
-150 36 -999 0
-152 40 1000 0
-152 40 -1000 0
-154 44 1001 0
-154 44 -1001 0
-156 48 1002 0
-156 48 -1002 0
-194 25 1003 0
-194 25 -1003 0
-196 29 1004 0
-196 29 -1004 0
-198 33 1005 0
-198 33 -1005 0
-200 37 1006 0
-200 37 -1006 0
-202 41 1007 0
-202 41 -1007 0
-204 45 1008 0
-204 45 -1008 0
-194 2 1009 0
-194 2 -1009 0
-196 6 1010 0
-196 6 -1010 0
-198 10 1011 0
-198 10 -1011 0
-200 14 1012 0
-200 14 -1012 0
-202 18 1013 0
-202 18 -1013 0
-204 22 1014 0
-204 22 -1014 0
-194 27 1015 0
-194 27 -1015 0
-196 31 1016 0
-196 31 -1016 0
-198 35 1017 0
-198 35 -1017 0
-200 39 1018 0
-200 39 -1018 0
-202 43 1019 0
-202 43 -1019 0
-204 47 1020 0
-204 47 -1020 0
-194 28 1021 0
-194 28 -1021 0
-196 32 1022 0
-196 32 -1022 0
-198 36 1023 0
-198 36 -1023 0
-200 40 1024 0
-200 40 -1024 0
-202 44 1025 0
-202 44 -1025 0
-204 48 1026 0
-204 48 -1026 0
-206 25 1027 0
-206 25 -1027 0
-208 29 1028 0
-208 29 -1028 0
-210 33 1029 0
-210 33 -1029 0
-212 37 1030 0
-212 37 -1030 0
-214 41 1031 0
-214 41 -1031 0
-216 45 1032 0
-216 45 -1032 0
-206 26 1033 0
-206 26 -1033 0
-208 30 1034 0
-208 30 -1034 0
-210 34 1035 0
-210 34 -1035 0
-212 38 1036 0
-212 38 -1036 0
-214 42 1037 0
-214 42 -1037 0
-216 46 1038 0
-216 46 -1038 0
-206 3 1039 0
-206 3 -1039 0
-208 7 1040 0
-208 7 -1040 0
-210 11 1041 0
-210 11 -1041 0
-212 15 1042 0
-212 15 -1042 0
-214 19 1043 0
-214 19 -1043 0
-216 23 1044 0
-216 23 -1044 0
-206 4 1045 0
-206 4 -1045 0
-208 8 1046 0
-208 8 -1046 0
-210 12 1047 0
-210 12 -1047 0
-212 16 1048 0
-212 16 -1048 0
-214 20 1049 0
-214 20 -1049 0
-216 24 1050 0
-216 24 -1050 0
-218 25 1051 0
-218 25 -1051 0
-220 29 1052 0
-220 29 -1052 0
-222 33 1053 0
-222 33 -1053 0
-224 37 1054 0
-224 37 -1054 0
-226 41 1055 0
-226 41 -1055 0
-228 45 1056 0
-228 45 -1056 0
-218 26 1057 0
-218 26 -1057 0
-220 30 1058 0
-220 30 -1058 0
-222 34 1059 0
-222 34 -1059 0
-224 38 1060 0
-224 38 -1060 0
-226 42 1061 0
-226 42 -1061 0
-228 46 1062 0
-228 46 -1062 0
-218 3 1063 0
-218 3 -1063 0
-220 7 1064 0
-220 7 -1064 0
-222 11 1065 0
-222 11 -1065 0
-224 15 1066 0
-224 15 -1066 0
-226 19 1067 0
-226 19 -1067 0
-228 23 1068 0
-228 23 -1068 0
-218 28 1069 0
-218 28 -1069 0
-220 32 1070 0
-220 32 -1070 0
-222 36 1071 0
-222 36 -1071 0
-224 40 1072 0
-224 40 -1072 0
-226 44 1073 0
-226 44 -1073 0
-228 48 1074 0
-228 48 -1074 0
-230 25 1075 0
-230 25 -1075 0
-232 29 1076 0
-232 29 -1076 0
-234 33 1077 0
-234 33 -1077 0
-236 37 1078 0
-236 37 -1078 0
-238 41 1079 0
-238 41 -1079 0
-240 45 1080 0
-240 45 -1080 0
-230 26 1081 0
-230 26 -1081 0
-232 30 1082 0
-232 30 -1082 0
-234 34 1083 0
-234 34 -1083 0
-236 38 1084 0
-236 38 -1084 0
-238 42 1085 0
-238 42 -1085 0
-240 46 1086 0
-240 46 -1086 0
-230 27 1087 0
-230 27 -1087 0
-232 31 1088 0
-232 31 -1088 0
-234 35 1089 0
-234 35 -1089 0
-236 39 1090 0
-236 39 -1090 0
-238 43 1091 0
-238 43 -1091 0
-240 47 1092 0
-240 47 -1092 0
-230 4 1093 0
-230 4 -1093 0
-232 8 1094 0
-232 8 -1094 0
-234 12 1095 0
-234 12 -1095 0
-236 16 1096 0
-236 16 -1096 0
-238 20 1097 0
-238 20 -1097 0
-240 24 1098 0
-240 24 -1098 0
-242 25 1099 0
-242 25 -1099 0
-244 29 1100 0
-244 29 -1100 0
-246 33 1101 0
-246 33 -1101 0
-248 37 1102 0
-248 37 -1102 0
-250 41 1103 0
-250 41 -1103 0
-252 45 1104 0
-252 45 -1104 0
-242 26 1105 0
-242 26 -1105 0
-244 30 1106 0
-244 30 -1106 0
-246 34 1107 0
-246 34 -1107 0
-248 38 1108 0
-248 38 -1108 0
-250 42 1109 0
-250 42 -1109 0
-252 46 1110 0
-252 46 -1110 0
-242 27 1111 0
-242 27 -1111 0
-244 31 1112 0
-244 31 -1112 0
-246 35 1113 0
-246 35 -1113 0
-248 39 1114 0
-248 39 -1114 0
-250 43 1115 0
-250 43 -1115 0
-252 47 1116 0
-252 47 -1116 0
-242 28 1117 0
-242 28 -1117 0
-244 32 1118 0
-244 32 -1118 0
-246 36 1119 0
-246 36 -1119 0
-248 40 1120 0
-248 40 -1120 0
-250 44 1121 0
-250 44 -1121 0
-252 48 1122 0
-252 48 -1122 0
